(declare-sort fun1 0)
(declare-sort fun12 0)
(declare-datatype list ((nil) (cons (head Int) (tail list))))
(declare-datatype
  pair ((pair2 (proj1-pair Bool) (proj2-pair list))))
(declare-fun lam (Int) fun12)
(declare-const lam2 fun1)
(declare-fun apply1 (fun1 Int) fun12)
(declare-fun apply12 (fun12 Int) Bool)
(define-fun-rec
  elem
  ((x Int) (y list)) Bool
  (match y
    ((nil false)
     ((cons z xs) (or (= z x) (elem x xs))))))
(define-fun-rec
  deleteBy
  ((x fun1) (y Int) (z list)) list
  (match z
    ((nil nil)
     ((cons y2 ys)
      (ite (apply12 (apply1 x y) y2) ys (cons y2 (deleteBy x y ys)))))))
(define-fun-rec
  isPermutation
  ((x list) (y list)) Bool
  (match x
    ((nil
      (match y
        ((nil true)
         ((cons z x2) false))))
     ((cons x3 xs)
      (and (elem x3 y) (isPermutation xs (deleteBy lam2 x3 y)))))))
(define-fun-rec
  bubble
  ((x list)) pair
  (match x
    ((nil (pair2 false nil))
     ((cons y z)
      (match z
        ((nil (pair2 false (cons y nil)))
         ((cons y2 xs)
          (ite
            (<= y y2)
            (match (bubble (cons y2 xs))
              (((pair2 b12 ys12) (pair2 b12 (cons y ys12)))))
            (match (bubble (cons y xs))
              (((pair2 b1 ys1) (pair2 true (cons y2 ys1)))))))))))))
(define-fun-rec
  bubsort
  ((x list)) list
  (match (bubble x) (((pair2 c ys1) (ite c (bubsort ys1) x)))))
(assert (forall ((x4 Int)) (= (apply1 lam2 x4) (lam x4))))
(assert
  (forall ((x4 Int) (x5 Int)) (= (apply12 (lam x4) x5) (= x4 x5))))
(assert (not (forall ((xs list)) (isPermutation (bubsort xs) xs))))
(check-sat)
